
&control
    calculation = 'relax'
    prefix = 'beh2'
    pseudo_dir = '/'
/
&system
    ibrav=1, celldm(1) =20, 
    nat=2, ntyp=1,
    ecutwfc=30.0
/
&electrons
    conv_thr=1e-8
/
&ions
    ion_dynamics='bfgs'
/
ATOMIC_SPECIES
 H  1.00784  H.pbe-kjpaw_psl.1.0.0.UPF
 Be  9.012182  Be.pbe-n-kjpaw_psl.1.0.0.UPF
ATOMIC_POSITIONS (angstrom)
 H 0.00 0.00 -1.33376
 H 0.00 0.00 133.376
 Be 0.00 0.00 0.00
K_POINTS (automatic)
  1 1 1 0 0 0
